GLPSOL: GLPK LP/MIP Solver, v4.55
Parameter(s) specified in the command line:
 -m tmp.mod
Reading model section from tmp.mod...
Reading data section from tmp.mod...
193 lines were read
Generating obj...
Generating kirhoff...
Generating init_charge...
Generating batt_size...
Model has been successfully generated
GLPK Simplex Optimizer, v4.55
134 rows, 211 columns, 396 non-zeros
Preprocessing...
89 rows, 171 columns, 348 non-zeros
Scaling...
 A: min|aij| =  1.000e+00  max|aij| =  1.000e+00  ratio =  1.000e+00
Problem data seem to be well scaled
Constructing initial basis...
Size of triangular part is 84
      0: obj =   0.000000000e+00  infeas =  2.320e+02 (5)
*    43: obj =   2.000000000e+01  infeas =  0.000e+00 (5)
*    48: obj =   1.300000000e+01  infeas =  0.000e+00 (5)
OPTIMAL LP SOLUTION FOUND
Time used:   0.0 secs
Memory used: 0.5 Mb (514944 bytes)
#OUTPUT:
13
-18 0 -11 -16 -2 -16 0 16 -18 0 -14 0 0 0 0 2 -6 -16 0 
-18 -5 -12 -18 5 -13 0 5 0 0 -17 0 0 0 0 3 -12 -5 0 
0 0 0 0 0 0 0 6 0 0 0 0 0 0 0 0 0 -6 0 
-14 0 -12 -14 0 -14 0 0 0 0 -11 0 0 0 0 0 -3 0 0 
-11 0 -12 0 0 0 0 0 0 0 0 0 0 0 0 0 5 0 0 
#OUTPUT END
Model has been successfully processed
